277
400
320	4
319	2
318	6
317	4
316	2
315	4
314	5
313	2
312	3
311	1
310	3
309	3
308	4
307	5
306	1
305	3
304	3
303	2
302	3
301	3
300	2
299	1
298	4
297	2
296	1
295	2
294	5
293	2
292	7
291	4
290	1
289	8
288	7
287	5
286	1
285	5
284	3
283	2
282	2
281	1
280	2
279	1
278	3
277	3
276	4
275	2
274	6
273	3
272	4
271	5
270	1
269	5
268	3
267	5
266	3
265	3
264	2
263	4
262	4
261	5
260	2
259	2
258	3
257	5
256	5
255	4
254	5
253	4
252	3
251	6
250	3
249	5
248	2
247	1
246	5
245	2
244	3
243	1
242	3
241	5
240	1
239	2
238	2
237	5
236	6
235	7
234	2
233	3
232	5
231	4
230	2
229	3
228	3
227	1
226	1
225	1
224	3
223	3
222	2
221	4
220	6
219	2
218	1
217	4
216	3
215	3
214	7
213	3
212	6
211	5
210	4
209	4
208	7
207	4
205	2
204	1
203	4
202	2
201	1
200	6
199	4
198	2
197	3
196	3
195	3
194	1
193	7
192	6
191	10
190	2
189	2
188	3
187	3
186	3
185	5
183	2
182	1
181	7
180	2
179	3
178	3
177	2
176	3
175	4
174	2
173	9
172	1
171	3
170	3
169	3
168	3
167	2
166	3
165	3
164	3
163	4
162	6
161	3
160	4
159	1
158	2
157	6
156	3
155	2
154	4
153	7
152	4
151	4
150	2
149	7
148	2
147	6
146	2
145	9
144	2
143	4
142	7
141	1
140	3
139	6
138	3
136	3
135	4
134	4
133	4
132	3
131	4
130	3
129	5
128	3
127	4
126	2
125	3
124	3
123	6
122	4
121	5
120	5
119	8
118	4
117	2
116	4
115	2
114	7
113	8
112	3
111	2
110	2
109	3
108	3
107	4
106	5
105	6
104	4
103	3
102	4
101	2
100	3
99	6
98	3
97	6
96	3
95	2
94	3
93	3
92	5
91	5
90	5
89	6
88	1
87	1
86	5
85	3
84	1
83	6
82	1
81	7
80	5
78	3
77	3
76	5
75	4
74	4
73	5
72	4
71	4
70	3
69	3
68	7
67	2
66	8
65	2
64	4
63	5
62	5
61	2
60	3
59	4
58	6
57	2
56	1
55	5
54	2
53	6
52	4
51	5
50	3
49	7
48	6
47	2
46	5
45	2
44	4
43	4
42	2
41	8
40	2
